
Gurobi 10.0.1 (mac64[arm]) logging started Mon Sep 18 23:06:43 2023

Set parameter LogFile to value "scenario_returns/returns_gamma/results/M_j_c_25/mip_log.txt"
Gurobi Optimizer version 10.0.1 build v10.0.1rc0 (mac64[arm])

CPU model: Apple M1
Thread count: 8 physical cores, 8 logical processors, using up to 8 threads

Optimize a model with 6776 rows, 25172 columns and 99088 nonzeros
Model fingerprint: 0x94e02915
Model has 35912 general constraints
Variable types: 4 continuous, 25168 integer (1632 binary)
Coefficient statistics:
  Matrix range     [6e-02, 3e+05]
  Objective range  [9e-02, 2e+05]
  Bounds range     [1e+00, 2e+07]
  RHS range        [2e+03, 2e+04]
  GenCon rhs range [1e+00, 1e+00]
  GenCon coe range [1e+00, 1e+00]

MIP start from previous solve did not produce a new incumbent solution
Processed MIP start in 4.51 seconds (6.21 work units)

Presolve removed 5126 rows and 19252 columns
Presolve time: 0.74s
Presolved: 1650 rows, 5920 columns, 23673 nonzeros
Presolved model has 4 SOS constraint(s)
Variable types: 0 continuous, 5920 integer (34 binary)

Root simplex log...

Iteration    Objective       Primal Inf.    Dual Inf.      Time
       0    2.3382359e+06   3.359145e+05   0.000000e+00      5s
    6381    7.0899918e+07   0.000000e+00   0.000000e+00      5s

Root relaxation: objective 7.089992e+07, 6381 iterations, 0.05 seconds (0.07 work units)

    Nodes    |    Current Node    |     Objective Bounds      |     Work
 Expl Unexpl |  Obj  Depth IntInf | Incumbent    BestBd   Gap | It/Node Time

     0     0 7.0900e+07    0  534          - 7.0900e+07      -     -    5s
     0     0 7.2082e+07    0  905          - 7.2082e+07      -     -    5s
     0     0 7.2082e+07    0  902          - 7.2082e+07      -     -    5s
     0     0 7.2082e+07    0  903          - 7.2082e+07      -     -    5s
     0     0 7.2082e+07    0  871          - 7.2082e+07      -     -    5s
     0     0 7.2082e+07    0  792          - 7.2082e+07      -     -    5s
     0     0 7.2082e+07    0  828          - 7.2082e+07      -     -    5s
     0     0 7.2082e+07    0  835          - 7.2082e+07      -     -    5s
     0     0 7.2082e+07    0  838          - 7.2082e+07      -     -    5s
     0     0 7.2082e+07    0  885          - 7.2082e+07      -     -    5s
     0     0 7.2082e+07    0  865          - 7.2082e+07      -     -    5s
     0     2 7.2082e+07    0  861          - 7.2082e+07      -     -    6s
H 7014  5666                    7.421000e+07 7.2580e+07  2.20%  11.4    9s
H 7049  3166                    7.395426e+07 7.2580e+07  1.86%  11.4    9s
H 7050  2023                    7.394888e+07 7.2580e+07  1.85%  11.4    9s
H 7066  1027                    7.380585e+07 7.2580e+07  1.66%  11.4    9s
  7223   982 7.3806e+07  281  863 7.3806e+07 7.2649e+07  1.57%  13.3   10s
H 7262   960                    7.352914e+07 7.2649e+07  1.20%  15.8   11s
H 7313   904                    7.352913e+07 7.2649e+07  1.20%  17.5   11s
H 9066   692                    7.351645e+07 7.2804e+07  0.97%  21.7   13s

Cutting planes:
  Gomory: 3
  Implied bound: 180
  MIR: 33
  Relax-and-lift: 39

Explored 10020 nodes (212216 simplex iterations) in 13.99 seconds (17.42 work units)
Thread count was 8 (of 8 available processors)

Solution count 7: 7.35164e+07 7.35291e+07 7.35291e+07 ... 7.421e+07

Optimal solution found (tolerance 1.00e-04)
Best objective 7.351644954800e+07, best bound 7.351644948853e+07, gap 0.0000%
